(set-logic QF_S)
(declare-fun A () String)
(assert (= (str.++  "ebdddce" "")  (str.++  "ebd" A "e") ))
(assert (= (str.++  "dec" A "e")  (str.++  "decddce" "") ))
(assert (= (str.++  "c" A "cde")  (str.++  "c" A "cde") ))
(assert (= (str.++  "dcccddc" "")  (str.++  "dccc" A) ))
(assert (= (str.++  "dcca" A)  (str.++  "dcca" A) ))
(assert (= (str.++  A "dbdb" "")  (str.++  "ddcdbdb" "") ))
(assert (= (str.++  "ecb" A "a")  (str.++  "ecb" A "a") ))
(check-sat)
(get-model)
